p tw 144 616
1 9
2 10
3 11
4 12
5 13
6 14
7 15
8 16
9 25
9 31
9 36
9 38
9 40
10 24
10 29
10 34
10 38
10 39
11 19
11 23
11 33
11 34
11 35
12 17
12 27
12 28
12 29
12 30
13 18
13 22
13 27
13 31
13 32
14 17
14 18
14 19
14 20
14 21
15 22
15 23
15 24
15 25
15 26
16 20
16 28
16 33
16 36
16 37
17 18
17 19
17 20
17 21
17 27
17 28
17 29
17 30
18 19
18 20
18 21
18 22
18 27
18 31
18 32
19 20
19 21
19 23
19 33
19 34
19 35
20 21
20 28
20 33
20 36
20 37
21 41
21 42
21 43
21 44
21 45
22 23
22 24
22 25
22 26
22 27
22 31
22 32
23 24
23 25
23 26
23 33
23 34
23 35
24 25
24 26
24 29
24 34
24 38
24 39
25 26
25 31
25 36
25 38
25 40
26 46
26 47
26 48
26 49
26 50
27 28
27 29
27 30
27 31
27 32
28 29
28 30
28 33
28 36
28 37
29 30
29 34
29 38
29 39
30 41
30 51
30 52
30 53
30 54
31 32
31 36
31 38
31 40
32 42
32 46
32 51
32 55
32 56
33 34
33 35
33 36
33 37
34 35
34 38
34 39
35 43
35 47
35 57
35 58
35 59
36 37
36 38
36 40
37 44
37 52
37 57
37 60
37 61
38 39
38 40
39 48
39 53
39 58
39 62
39 63
40 49
40 55
40 60
40 62
40 64
41 42
41 43
41 44
41 45
41 51
41 52
41 53
41 54
42 43
42 44
42 45
42 46
42 51
42 55
42 56
43 44
43 45
43 47
43 57
43 58
43 59
44 45
44 52
44 57
44 60
44 61
45 65
45 66
45 67
45 68
45 69
46 47
46 48
46 49
46 50
46 51
46 55
46 56
47 48
47 49
47 50
47 57
47 58
47 59
48 49
48 50
48 53
48 58
48 62
48 63
49 50
49 55
49 60
49 62
49 64
50 70
50 71
50 72
50 73
50 74
51 52
51 53
51 54
51 55
51 56
52 53
52 54
52 57
52 60
52 61
53 54
53 58
53 62
53 63
54 65
54 75
54 76
54 77
54 78
55 56
55 60
55 62
55 64
56 66
56 70
56 75
56 79
56 80
57 58
57 59
57 60
57 61
58 59
58 62
58 63
59 67
59 71
59 81
59 82
59 83
60 61
60 62
60 64
61 68
61 76
61 81
61 84
61 85
62 63
62 64
63 72
63 77
63 82
63 86
63 87
64 73
64 79
64 84
64 86
64 88
65 66
65 67
65 68
65 69
65 75
65 76
65 77
65 78
66 67
66 68
66 69
66 70
66 75
66 79
66 80
67 68
67 69
67 71
67 81
67 82
67 83
68 69
68 76
68 81
68 84
68 85
69 89
69 90
69 91
69 92
69 93
70 71
70 72
70 73
70 74
70 75
70 79
70 80
71 72
71 73
71 74
71 81
71 82
71 83
72 73
72 74
72 77
72 82
72 86
72 87
73 74
73 79
73 84
73 86
73 88
74 94
74 95
74 96
74 97
74 98
75 76
75 77
75 78
75 79
75 80
76 77
76 78
76 81
76 84
76 85
77 78
77 82
77 86
77 87
78 89
78 99
78 100
78 101
78 102
79 80
79 84
79 86
79 88
80 90
80 94
80 99
80 103
80 104
81 82
81 83
81 84
81 85
82 83
82 86
82 87
83 91
83 95
83 105
83 106
83 107
84 85
84 86
84 88
85 92
85 100
85 105
85 108
85 109
86 87
86 88
87 96
87 101
87 106
87 110
87 111
88 97
88 103
88 108
88 110
88 112
89 90
89 91
89 92
89 93
89 99
89 100
89 101
89 102
90 91
90 92
90 93
90 94
90 99
90 103
90 104
91 92
91 93
91 95
91 105
91 106
91 107
92 93
92 100
92 105
92 108
92 109
93 113
93 114
93 115
93 116
93 117
94 95
94 96
94 97
94 98
94 99
94 103
94 104
95 96
95 97
95 98
95 105
95 106
95 107
96 97
96 98
96 101
96 106
96 110
96 111
97 98
97 103
97 108
97 110
97 112
98 118
98 119
98 120
98 121
98 122
99 100
99 101
99 102
99 103
99 104
100 101
100 102
100 105
100 108
100 109
101 102
101 106
101 110
101 111
102 113
102 123
102 124
102 125
102 126
103 104
103 108
103 110
103 112
104 114
104 118
104 123
104 127
104 128
105 106
105 107
105 108
105 109
106 107
106 110
106 111
107 115
107 119
107 129
107 130
107 131
108 109
108 110
108 112
109 116
109 124
109 129
109 132
109 133
110 111
110 112
111 120
111 125
111 130
111 134
111 135
112 121
112 127
112 132
112 134
112 136
113 114
113 115
113 116
113 117
113 123
113 124
113 125
113 126
114 115
114 116
114 117
114 118
114 123
114 127
114 128
115 116
115 117
115 119
115 129
115 130
115 131
116 117
116 124
116 129
116 132
116 133
117 139
118 119
118 120
118 121
118 122
118 123
118 127
118 128
119 120
119 121
119 122
119 129
119 130
119 131
120 121
120 122
120 125
120 130
120 134
120 135
121 122
121 127
121 132
121 134
121 136
122 138
123 124
123 125
123 126
123 127
123 128
124 125
124 126
124 129
124 132
124 133
125 126
125 130
125 134
125 135
126 141
127 128
127 132
127 134
127 136
128 140
129 130
129 131
129 132
129 133
130 131
130 134
130 135
131 142
132 133
132 134
132 136
133 137
134 135
134 136
135 143
136 144
